10
2147483647 42 77 70 70 7 100 7 98 82 
42 2147483647 51 34 98 76 43 50 79 52 
77 51 2147483647 27 92 10 30 13 55 92 
70 34 27 2147483647 67 8 65 12 62 44 
70 98 92 67 2147483647 24 26 92 12 8 
7 76 10 8 24 2147483647 18 50 11 93 
100 43 30 65 26 18 2147483647 11 6 60 
7 50 13 12 92 50 11 2147483647 78 61 
98 79 55 62 12 11 6 78 2147483647 75 
82 52 92 44 8 93 60 61 75 2147483647 
